p cnf 30 76
-10 -2 -11 0
10 2 -11 0
10 -2 11 0
-10 2 11 0
3 -11 -12 0
-3 11 -12 0
-3 -11 12 0
3 11 12 0
6 -12 -13 0
-6 12 -13 0
-6 -12 13 0
6 12 13 0
9 -13 -14 0
-9 13 -14 0
-9 -13 14 0
9 13 14 0
7 -14 -15 0
-7 14 -15 0
-7 -14 15 0
7 14 15 0
4 -15 -16 0
-4 15 -16 0
-4 -15 16 0
4 15 16 0
8 -16 -17 0
-8 16 -17 0
-8 -16 17 0
8 16 17 0
1 -17 -18 0
-1 17 -18 0
-1 -17 18 0
1 17 18 0
5 -18 -19 0
-5 18 -19 0
-5 -18 19 0
5 18 19 0
4 -8 -20 0
-4 8 -20 0
-4 -8 20 0
4 8 20 0
3 -20 -21 0
-3 20 -21 0
-3 -20 21 0
3 20 21 0
1 -21 -22 0
-1 21 -22 0
-1 -21 22 0
1 21 22 0
9 -22 -23 0
-9 22 -23 0
-9 -22 23 0
9 22 23 0
7 -23 -24 0
-7 23 -24 0
-7 -23 24 0
7 23 24 0
2 -24 -25 0
-2 24 -25 0
-2 -24 25 0
2 24 25 0
5 -25 -26 0
-5 25 -26 0
-5 -25 26 0
5 25 26 0
10 -26 -27 0
-10 26 -27 0
-10 -26 27 0
10 26 27 0
6 -27 -28 0
-6 27 -28 0
-6 -27 28 0
6 27 28 0
-19 29 0
-29 28 0
-28 30 0
-30 19 0
